Version identifier: 22.1.1.0 | 2022-11-28 | 9160aff4d
CPXPARAM_Threads                                 1
CPXPARAM_MIP_Strategy_VariableSelect             3
CPXPARAM_TimeLimit                               599.99998327200001
1 of 1 MIP starts provided solutions.
MIP start 'm1' defined initial solution with objective 94.0000.
Tried aggregator 1 time.
MIP Presolve eliminated 18 rows and 648 columns.
MIP Presolve modified 49 coefficients.
Reduced MIP has 1291 rows, 2160 columns, and 39422 nonzeros.
Reduced MIP has 2160 binaries, 0 generals, 0 SOSs, and 0 indicators.
Presolve time = 0.07 sec. (67.86 ticks)
Probing time = 0.02 sec. (9.59 ticks)
Tried aggregator 1 time.
Detecting symmetries...
MIP Presolve modified 10 coefficients.
Reduced MIP has 1291 rows, 2160 columns, and 39600 nonzeros.
Reduced MIP has 2160 binaries, 0 generals, 0 SOSs, and 0 indicators.
Presolve time = 0.07 sec. (58.30 ticks)
Probing time = 0.01 sec. (9.60 ticks)
Clique table members: 855.
MIP emphasis: balance optimality and feasibility.
MIP search method: dynamic search.
Parallel mode: none, using 1 thread.
Root relaxation solution time = 0.02 sec. (20.32 ticks)

        Nodes                                         Cuts/
   Node  Left     Objective  IInf  Best Integer    Best Bound    ItCnt     Gap

*     0+    0                           94.0000    23436.0000              --- 
      0     0      216.0000    87       94.0000      216.0000      496  129.79%
*     0+    0                          216.0000      216.0000             0.00%
      0     0        cutoff            216.0000      216.0000      496    0.00%
Elapsed time = 0.30 sec. (225.19 ticks, tree = 0.01 MB, solutions = 2)

Root node processing (before b&c):
  Real time             =    0.30 sec. (225.30 ticks)
Sequential b&c:
  Real time             =    0.00 sec. (0.00 ticks)
                          ------------
Total (root+branch&cut) =    0.30 sec. (225.30 ticks)
Primal:	216
Dual:	216
Status:	Optimal
Time:	0.31
Sequence:
	11
	2
	4
	9
	0
	9
	9
	4
	3
	4
	6
	9
	4
	9
	3
	9
	9
	4
	4
	2
	4
	4
	0
	4
	4
	9
	4
	0
	11
	9
	0
	9
	9
	9
	11
	9
	1
	0
	9
	4
	4
	11
	4
	4
	9
	4
	4
	3
	4
	2
	5
	9
	4
	4
	11
	4
	5
	0
	1
	4
	3
	0
	4
	1
	4
	0
	4
	11
	2
	1
	4
	4
	0
	11
	1
	4
	4
	0
	4
	5
	1
	11
	4
	0
	4
	4
	0
	4
	9
	5
	0
	11
	4
	1
	5
	4
	9
	11
	0
	9
	9
	0
	9
	4
	0
	3
	4
	5
	0
	9
	4
	4
	1
	1
	3
	4
	4
	9
	4
	0
	4
	4
	11
	4
	4
	9
	0
	9
	9
	11
	9
	5
	4
	9
	4
	5
	0
	3
	4
	1
	5
	1
	4
	1
	3
	5
	9
	0
	5
	9
	0
	1
	9
	0
	9
	6
	0
	9
	3
	0
	9
	4
	0
	9
	9
	3
	0
	9
	9
	0
	9
	9
	3
	4
	5
	0
	5
	4
	0
	11
	9
	9
	4
	0
	9
	3
	9
	0
	9
	9
	9
	3
	9
	5
	5
	9
	9
	0
	11
	9
	9
	5
	5
	9
	11
	9
	4
	0
	5
	9
	0
	9
	11
	0
	5
	4
